NAME : X_30_seed_123_id_9
TYPE : CVRP
DIMENSION : 237
EDGE_WEIGHT_TYPE : EUC_2D
CAPACITY : 18
NODE_COORD_SECTION
1	0	0
2	988	875
3	435	15
4	479	175
5	150	769
6	325	917
7	861	190
8	502	113
9	923	534
10	513	929
11	976	728
12	522	792
13	948	702
14	486	317
15	249	166
16	914	513
17	682	542
18	192	442
19	423	959
20	881	906
21	89	780
22	220	879
23	446	407
24	893	110
25	433	870
26	652	978
27	29	250
28	495	693
29	254	246
30	101	292
31	408	674
32	685	950
33	593	272
34	830	618
35	620	141
36	526	460
37	131	898
38	428	147
39	114	265
40	664	643
41	851	86
42	387	520
43	184	616
44	943	741
45	28	313
46	88	802
47	397	801
48	429	876
49	395	959
50	943	473
51	974	705
52	134	345
53	766	916
54	963	187
55	124	27
56	188	291
57	766	857
58	412	277
59	846	277
60	551	101
61	340	286
62	390	492
63	834	863
64	67	181
65	539	712
66	453	515
67	252	999
68	940	925
69	532	308
70	487	109
71	488	123
72	115	303
73	647	863
74	781	71
75	674	83
76	769	580
77	59	207
78	815	5
79	250	587
80	917	653
81	395	65
82	499	465
83	665	285
84	654	356
85	137	186
86	207	493
87	506	609
88	536	201
89	688	395
90	725	104
91	626	922
92	681	840
93	929	513
94	361	190
95	689	610
96	691	221
97	130	181
98	453	618
99	650	500
100	17	73
101	732	147
102	6	983
103	58	568
104	881	280
105	10	143
106	575	806
107	310	256
108	969	42
109	521	650
110	263	794
111	747	383
112	658	415
113	947	970
114	793	636
115	378	355
116	225	18
117	836	79
118	510	962
119	116	343
120	606	935
121	761	450
122	564	22
123	770	90
124	246	860
125	860	839
126	905	502
127	404	238
128	845	664
129	960	637
130	581	997
131	502	262
132	847	49
133	729	932
134	293	881
135	56	149
136	391	807
137	861	539
138	269	560
139	575	278
140	581	450
141	960	753
142	988	144
143	178	813
144	421	318
145	801	581
146	394	633
147	311	914
148	322	944
149	50	502
150	232	396
151	618	578
152	612	432
153	992	648
154	719	570
155	765	809
156	733	139
157	406	35
158	291	210
159	244	583
160	178	981
161	115	866
162	848	972
163	575	183
164	286	70
165	972	390
166	615	697
167	717	600
168	207	971
169	430	233
170	690	225
171	14	931
172	323	652
173	446	343
174	183	486
175	756	384
176	149	896
177	673	333
178	645	352
179	605	789
180	44	392
181	53	896
182	284	318
183	8	854
184	890	980
185	342	389
186	335	615
187	423	957
188	14	714
189	140	295
190	542	453
191	58	929
192	29	300
193	48	62
194	715	842
195	252	826
196	901	369
197	766	698
198	758	265
199	321	934
200	160	234
201	693	967
202	499	940
203	417	974
204	1000	634
205	670	949
206	971	993
207	132	234
208	303	858
209	358	706
210	976	953
211	788	900
212	699	454
213	773	240
214	688	875
215	542	806
216	593	703
217	792	312
218	851	98
219	906	124
220	302	631
221	307	786
222	818	45
223	82	512
224	916	305
225	214	739
226	465	743
227	711	704
228	906	740
229	889	337
230	968	890
231	481	934
232	161	992
233	379	394
234	716	64
235	616	721
236	242	270
237	988	314
DEMAND_SECTION
1	0
2	1
3	1
4	1
5	1
6	1
7	1
8	1
9	1
10	1
11	1
12	1
13	1
14	1
15	1
16	1
17	1
18	1
19	1
20	1
21	1
22	1
23	1
24	1
25	1
26	1
27	1
28	1
29	1
30	1
31	1
32	1
33	1
34	1
35	1
36	1
37	1
38	1
39	1
40	1
41	1
42	1
43	1
44	1
45	1
46	1
47	1
48	1
49	1
50	1
51	1
52	1
53	1
54	1
55	1
56	1
57	1
58	1
59	1
60	1
61	1
62	1
63	1
64	1
65	1
66	1
67	1
68	1
69	1
70	1
71	1
72	1
73	1
74	1
75	1
76	1
77	1
78	1
79	1
80	1
81	1
82	1
83	1
84	1
85	1
86	1
87	1
88	1
89	1
90	1
91	1
92	1
93	1
94	1
95	1
96	1
97	1
98	1
99	1
100	1
101	1
102	1
103	1
104	1
105	1
106	1
107	1
108	1
109	1
110	1
111	1
112	1
113	1
114	1
115	1
116	1
117	1
118	1
119	1
120	1
121	1
122	1
123	1
124	1
125	1
126	1
127	1
128	1
129	1
130	1
131	1
132	1
133	1
134	1
135	1
136	1
137	1
138	1
139	1
140	1
141	1
142	1
143	1
144	1
145	1
146	1
147	1
148	1
149	1
150	1
151	1
152	1
153	1
154	1
155	1
156	1
157	1
158	1
159	1
160	1
161	1
162	1
163	1
164	1
165	1
166	1
167	1
168	1
169	1
170	1
171	1
172	1
173	1
174	1
175	1
176	1
177	1
178	1
179	1
180	1
181	1
182	1
183	1
184	1
185	1
186	1
187	1
188	1
189	1
190	1
191	1
192	1
193	1
194	1
195	1
196	1
197	1
198	1
199	1
200	1
201	1
202	1
203	1
204	1
205	1
206	1
207	1
208	1
209	1
210	1
211	1
212	1
213	1
214	1
215	1
216	1
217	1
218	1
219	1
220	1
221	1
222	1
223	1
224	1
225	1
226	1
227	1
228	1
229	1
230	1
231	1
232	1
233	1
234	1
235	1
236	1
237	1
DEPOT_SECTION
1
-1
EOF
